3234 2524 1 2 3 5 6 7 8 9 10 13 14 15 16 20 21 23 24 25 26 27 28 30 31 32 34 35 37 38 39 40 42 43 48 49 50 51 52 53 54 55 56 57 58 59 63 64 67 68 71 72 73 74 75 76 77 78 79 81 82 84 86 87 88 90 91 94 96 97 98 99 100 